0 8105840
1 7993488
5 7991949
7 7918765
9 7913819
11 7912341
12 7909482
14 7787254
20 7743516
27 7735703
28 7726956
29 7665007
32 7664622
37 7659004
40 7656726
41 7600033
52 7586878
54 7586472
55 7585845
59 7530192
63 7503789
64 7499543
65 7489153
67 7446262
74 7439944
75 7439195
76 7437434
83 7408018
98 7406637
110 7396287
136 7348759
140 7348659
142 7348561
149 7308586
163 7301410
180 7297519
186 7297475
192 7288582
197 7283542
199 7282730
200 7280816
232 7268704
236 7267931
238 7266958
252 7266283
282 7265358
292 7261906
297 7260554
303 7260372
313 7248355
325 7248180
353 7248173
365 7247319
371 7247147
379 7247069
382 7247051
390 7243199
410 7243073
659 7242758
763 7242470
814 7239116
852 7238011
1010 7237894
1062 7220721
1078 7220693
1142 7206024
1199 7205779
1204 7203811
1244 7202894
1277 7201629
1333 7200634
